\ Model gbpp
\ LP format - for model browsing. Use MPS format to capture full model detail.
Minimize
  242.0367802087489 Y[0] + 233.0334821003874 Y[1] + 229.9654673674523 Y[2]
   + 243.5322392618277 Y[3] + 243.5994902142004 Y[4]
   + 243.5994902142004 Y[5] + 233.0334821003874 Y[6]
   + 261.9270966350664 Y[7] + 233.0334821003874 Y[8]
   + 243.5994902142004 Y[9] + 229.9654673674523 Y[10]
   + 220.4648634037842 Y[11] + 233.0334821003874 Y[12]
   + 202.5926231827891 Y[13] + 261.9270966350664 Y[14]
   + 242.0367802087489 Y[15] + 243.5322392618277 Y[16]
   + 220.4648634037842 Y[17] + 202.5926231827891 Y[18]
   + 242.0367802087489 Y[19] + 243.5994902142004 Y[20]
   + 229.9654673674523 Y[21] + 233.0334821003874 Y[22]
   + 242.0367802087489 Y[23] + 254.9662477878709 Y[24]
   - 102.1389136861997 X[9,0] - 102.1389136861997 X[9,1]
   - 102.1389136861997 X[9,2] - 102.1389136861997 X[9,3]
   - 102.1389136861997 X[9,4] - 102.1389136861997 X[9,5]
   - 102.1389136861997 X[9,6] - 102.1389136861997 X[9,7]
   - 102.1389136861997 X[9,8] - 102.1389136861997 X[9,9]
   - 102.1389136861997 X[9,10] - 102.1389136861997 X[9,11]
   - 102.1389136861997 X[9,12] - 102.1389136861997 X[9,13]
   - 102.1389136861997 X[9,14] - 102.1389136861997 X[9,15]
   - 102.1389136861997 X[9,16] - 102.1389136861997 X[9,17]
   - 102.1389136861997 X[9,18] - 102.1389136861997 X[9,19]
   - 102.1389136861997 X[9,20] - 102.1389136861997 X[9,21]
   - 102.1389136861997 X[9,22] - 102.1389136861997 X[9,23]
   - 102.1389136861997 X[9,24] - 104.4061241414112 X[10,0]
   - 104.4061241414112 X[10,1] - 104.4061241414112 X[10,2]
   - 104.4061241414112 X[10,3] - 104.4061241414112 X[10,4]
   - 104.4061241414112 X[10,5] - 104.4061241414112 X[10,6]
   - 104.4061241414112 X[10,7] - 104.4061241414112 X[10,8]
   - 104.4061241414112 X[10,9] - 104.4061241414112 X[10,10]
   - 104.4061241414112 X[10,11] - 104.4061241414112 X[10,12]
   - 104.4061241414112 X[10,13] - 104.4061241414112 X[10,14]
   - 104.4061241414112 X[10,15] - 104.4061241414112 X[10,16]
   - 104.4061241414112 X[10,17] - 104.4061241414112 X[10,18]
   - 104.4061241414112 X[10,19] - 104.4061241414112 X[10,20]
   - 104.4061241414112 X[10,21] - 104.4061241414112 X[10,22]
   - 104.4061241414112 X[10,23] - 104.4061241414112 X[10,24]
   - 106.996525700066 X[11,0] - 106.996525700066 X[11,1]
   - 106.996525700066 X[11,2] - 106.996525700066 X[11,3]
   - 106.996525700066 X[11,4] - 106.996525700066 X[11,5]
   - 106.996525700066 X[11,6] - 106.996525700066 X[11,7]
   - 106.996525700066 X[11,8] - 106.996525700066 X[11,9]
   - 106.996525700066 X[11,10] - 106.996525700066 X[11,11]
   - 106.996525700066 X[11,12] - 106.996525700066 X[11,13]
   - 106.996525700066 X[11,14] - 106.996525700066 X[11,15]
   - 106.996525700066 X[11,16] - 106.996525700066 X[11,17]
   - 106.996525700066 X[11,18] - 106.996525700066 X[11,19]
   - 106.996525700066 X[11,20] - 106.996525700066 X[11,21]
   - 106.996525700066 X[11,22] - 106.996525700066 X[11,23]
   - 106.996525700066 X[11,24] - 109.355749691646 X[12,0]
   - 109.355749691646 X[12,1] - 109.355749691646 X[12,2]
   - 109.355749691646 X[12,3] - 109.355749691646 X[12,4]
   - 109.355749691646 X[12,5] - 109.355749691646 X[12,6]
   - 109.355749691646 X[12,7] - 109.355749691646 X[12,8]
   - 109.355749691646 X[12,9] - 109.355749691646 X[12,10]
   - 109.355749691646 X[12,11] - 109.355749691646 X[12,12]
   - 109.355749691646 X[12,13] - 109.355749691646 X[12,14]
   - 109.355749691646 X[12,15] - 109.355749691646 X[12,16]
   - 109.355749691646 X[12,17] - 109.355749691646 X[12,18]
   - 109.355749691646 X[12,19] - 109.355749691646 X[12,20]
   - 109.355749691646 X[12,21] - 109.355749691646 X[12,22]
   - 109.355749691646 X[12,23] - 109.355749691646 X[12,24]
   - 104.0348645252993 X[13,0] - 104.0348645252993 X[13,1]
   - 104.0348645252993 X[13,2] - 104.0348645252993 X[13,3]
   - 104.0348645252993 X[13,4] - 104.0348645252993 X[13,5]
   - 104.0348645252993 X[13,6] - 104.0348645252993 X[13,7]
   - 104.0348645252993 X[13,8] - 104.0348645252993 X[13,9]
   - 104.0348645252993 X[13,10] - 104.0348645252993 X[13,11]
   - 104.0348645252993 X[13,12] - 104.0348645252993 X[13,13]
   - 104.0348645252993 X[13,14] - 104.0348645252993 X[13,15]
   - 104.0348645252993 X[13,16] - 104.0348645252993 X[13,17]
   - 104.0348645252993 X[13,18] - 104.0348645252993 X[13,19]
   - 104.0348645252993 X[13,20] - 104.0348645252993 X[13,21]
   - 104.0348645252993 X[13,22] - 104.0348645252993 X[13,23]
   - 104.0348645252993 X[13,24] - 112.8081345042983 X[14,0]
   - 112.8081345042983 X[14,1] - 112.8081345042983 X[14,2]
   - 112.8081345042983 X[14,3] - 112.8081345042983 X[14,4]
   - 112.8081345042983 X[14,5] - 112.8081345042983 X[14,6]
   - 112.8081345042983 X[14,7] - 112.8081345042983 X[14,8]
   - 112.8081345042983 X[14,9] - 112.8081345042983 X[14,10]
   - 112.8081345042983 X[14,11] - 112.8081345042983 X[14,12]
   - 112.8081345042983 X[14,13] - 112.8081345042983 X[14,14]
   - 112.8081345042983 X[14,15] - 112.8081345042983 X[14,16]
   - 112.8081345042983 X[14,17] - 112.8081345042983 X[14,18]
   - 112.8081345042983 X[14,19] - 112.8081345042983 X[14,20]
   - 112.8081345042983 X[14,21] - 112.8081345042983 X[14,22]
   - 112.8081345042983 X[14,23] - 112.8081345042983 X[14,24]
   - 109.661396711035 X[15,0] - 109.661396711035 X[15,1]
   - 109.661396711035 X[15,2] - 109.661396711035 X[15,3]
   - 109.661396711035 X[15,4] - 109.661396711035 X[15,5]
   - 109.661396711035 X[15,6] - 109.661396711035 X[15,7]
   - 109.661396711035 X[15,8] - 109.661396711035 X[15,9]
   - 109.661396711035 X[15,10] - 109.661396711035 X[15,11]
   - 109.661396711035 X[15,12] - 109.661396711035 X[15,13]
   - 109.661396711035 X[15,14] - 109.661396711035 X[15,15]
   - 109.661396711035 X[15,16] - 109.661396711035 X[15,17]
   - 109.661396711035 X[15,18] - 109.661396711035 X[15,19]
   - 109.661396711035 X[15,20] - 109.661396711035 X[15,21]
   - 109.661396711035 X[15,22] - 109.661396711035 X[15,23]
   - 109.661396711035 X[15,24] - 110.104734400371 X[16,0]
   - 110.104734400371 X[16,1] - 110.104734400371 X[16,2]
   - 110.104734400371 X[16,3] - 110.104734400371 X[16,4]
   - 110.104734400371 X[16,5] - 110.104734400371 X[16,6]
   - 110.104734400371 X[16,7] - 110.104734400371 X[16,8]
   - 110.104734400371 X[16,9] - 110.104734400371 X[16,10]
   - 110.104734400371 X[16,11] - 110.104734400371 X[16,12]
   - 110.104734400371 X[16,13] - 110.104734400371 X[16,14]
   - 110.104734400371 X[16,15] - 110.104734400371 X[16,16]
   - 110.104734400371 X[16,17] - 110.104734400371 X[16,18]
   - 110.104734400371 X[16,19] - 110.104734400371 X[16,20]
   - 110.104734400371 X[16,21] - 110.104734400371 X[16,22]
   - 110.104734400371 X[16,23] - 110.104734400371 X[16,24]
   - 107.7378530223712 X[17,0] - 107.7378530223712 X[17,1]
   - 107.7378530223712 X[17,2] - 107.7378530223712 X[17,3]
   - 107.7378530223712 X[17,4] - 107.7378530223712 X[17,5]
   - 107.7378530223712 X[17,6] - 107.7378530223712 X[17,7]
   - 107.7378530223712 X[17,8] - 107.7378530223712 X[17,9]
   - 107.7378530223712 X[17,10] - 107.7378530223712 X[17,11]
   - 107.7378530223712 X[17,12] - 107.7378530223712 X[17,13]
   - 107.7378530223712 X[17,14] - 107.7378530223712 X[17,15]
   - 107.7378530223712 X[17,16] - 107.7378530223712 X[17,17]
   - 107.7378530223712 X[17,18] - 107.7378530223712 X[17,19]
   - 107.7378530223712 X[17,20] - 107.7378530223712 X[17,21]
   - 107.7378530223712 X[17,22] - 107.7378530223712 X[17,23]
   - 107.7378530223712 X[17,24] - 115.8727490888315 X[18,0]
   - 115.8727490888315 X[18,1] - 115.8727490888315 X[18,2]
   - 115.8727490888315 X[18,3] - 115.8727490888315 X[18,4]
   - 115.8727490888315 X[18,5] - 115.8727490888315 X[18,6]
   - 115.8727490888315 X[18,7] - 115.8727490888315 X[18,8]
   - 115.8727490888315 X[18,9] - 115.8727490888315 X[18,10]
   - 115.8727490888315 X[18,11] - 115.8727490888315 X[18,12]
   - 115.8727490888315 X[18,13] - 115.8727490888315 X[18,14]
   - 115.8727490888315 X[18,15] - 115.8727490888315 X[18,16]
   - 115.8727490888315 X[18,17] - 115.8727490888315 X[18,18]
   - 115.8727490888315 X[18,19] - 115.8727490888315 X[18,20]
   - 115.8727490888315 X[18,21] - 115.8727490888315 X[18,22]
   - 115.8727490888315 X[18,23] - 115.8727490888315 X[18,24]
   - 111.6000835775561 X[19,0] - 111.6000835775561 X[19,1]
   - 111.6000835775561 X[19,2] - 111.6000835775561 X[19,3]
   - 111.6000835775561 X[19,4] - 111.6000835775561 X[19,5]
   - 111.6000835775561 X[19,6] - 111.6000835775561 X[19,7]
   - 111.6000835775561 X[19,8] - 111.6000835775561 X[19,9]
   - 111.6000835775561 X[19,10] - 111.6000835775561 X[19,11]
   - 111.6000835775561 X[19,12] - 111.6000835775561 X[19,13]
   - 111.6000835775561 X[19,14] - 111.6000835775561 X[19,15]
   - 111.6000835775561 X[19,16] - 111.6000835775561 X[19,17]
   - 111.6000835775561 X[19,18] - 111.6000835775561 X[19,19]
   - 111.6000835775561 X[19,20] - 111.6000835775561 X[19,21]
   - 111.6000835775561 X[19,22] - 111.6000835775561 X[19,23]
   - 111.6000835775561 X[19,24] - 103.2459719700463 X[20,0]
   - 103.2459719700463 X[20,1] - 103.2459719700463 X[20,2]
   - 103.2459719700463 X[20,3] - 103.2459719700463 X[20,4]
   - 103.2459719700463 X[20,5] - 103.2459719700463 X[20,6]
   - 103.2459719700463 X[20,7] - 103.2459719700463 X[20,8]
   - 103.2459719700463 X[20,9] - 103.2459719700463 X[20,10]
   - 103.2459719700463 X[20,11] - 103.2459719700463 X[20,12]
   - 103.2459719700463 X[20,13] - 103.2459719700463 X[20,14]
   - 103.2459719700463 X[20,15] - 103.2459719700463 X[20,16]
   - 103.2459719700463 X[20,17] - 103.2459719700463 X[20,18]
   - 103.2459719700463 X[20,19] - 103.2459719700463 X[20,20]
   - 103.2459719700463 X[20,21] - 103.2459719700463 X[20,22]
   - 103.2459719700463 X[20,23] - 103.2459719700463 X[20,24]
Subject To
 capacity_constraint[0]: - 13.19009369772045 Y[0]
   + 6.503761733035781 X[0,0] + 7.822755400446276 X[1,0]
   + 5.500041805851083 X[2,0] + 7.447600319730725 X[3,0]
   + 4.708068263355548 X[4,0] + 5.835720638138547 X[5,0]
   + 5.13772981648055 X[6,0] + 5.183736315133995 X[7,0]
   + 6.882795924985501 X[8,0] + 5.678020867488282 X[9,0]
   + 7.768711134724334 X[10,0] + 5.721040800740511 X[11,0]
   + 3.410474611375124 X[12,0] + 4.831712008375102 X[13,0]
   + 7.254252520022509 X[14,0] + 5.031375215239754 X[15,0]
   + 3.136011829474248 X[16,0] + 4.235886194986767 X[17,0]
   + 3.335721853684773 X[18,0] + 7.969260057106364 X[19,0]
   + 7.852901566885867 X[20,0] <= 0
 capacity_constraint[1]: - 8.582158119056814 Y[1]
   + 6.503761733035781 X[0,1] + 7.822755400446276 X[1,1]
   + 5.500041805851083 X[2,1] + 7.447600319730725 X[3,1]
   + 4.708068263355548 X[4,1] + 5.835720638138547 X[5,1]
   + 5.13772981648055 X[6,1] + 5.183736315133995 X[7,1]
   + 6.882795924985501 X[8,1] + 5.678020867488282 X[9,1]
   + 7.768711134724334 X[10,1] + 5.721040800740511 X[11,1]
   + 3.410474611375124 X[12,1] + 4.831712008375102 X[13,1]
   + 7.254252520022509 X[14,1] + 5.031375215239754 X[15,1]
   + 3.136011829474248 X[16,1] + 4.235886194986767 X[17,1]
   + 3.335721853684773 X[18,1] + 7.969260057106364 X[19,1]
   + 7.852901566885867 X[20,1] <= 0
 capacity_constraint[2]: - 12.91931572334699 Y[2]
   + 6.503761733035781 X[0,2] + 7.822755400446276 X[1,2]
   + 5.500041805851083 X[2,2] + 7.447600319730725 X[3,2]
   + 4.708068263355548 X[4,2] + 5.835720638138547 X[5,2]
   + 5.13772981648055 X[6,2] + 5.183736315133995 X[7,2]
   + 6.882795924985501 X[8,2] + 5.678020867488282 X[9,2]
   + 7.768711134724334 X[10,2] + 5.721040800740511 X[11,2]
   + 3.410474611375124 X[12,2] + 4.831712008375102 X[13,2]
   + 7.254252520022509 X[14,2] + 5.031375215239754 X[15,2]
   + 3.136011829474248 X[16,2] + 4.235886194986767 X[17,2]
   + 3.335721853684773 X[18,2] + 7.969260057106364 X[19,2]
   + 7.852901566885867 X[20,2] <= 0
 capacity_constraint[3]: - 7.88411923482907 Y[3] + 6.503761733035781 X[0,3]
   + 7.822755400446276 X[1,3] + 5.500041805851083 X[2,3]
   + 7.447600319730725 X[3,3] + 4.708068263355548 X[4,3]
   + 5.835720638138547 X[5,3] + 5.13772981648055 X[6,3]
   + 5.183736315133995 X[7,3] + 6.882795924985501 X[8,3]
   + 5.678020867488282 X[9,3] + 7.768711134724334 X[10,3]
   + 5.721040800740511 X[11,3] + 3.410474611375124 X[12,3]
   + 4.831712008375102 X[13,3] + 7.254252520022509 X[14,3]
   + 5.031375215239754 X[15,3] + 3.136011829474248 X[16,3]
   + 4.235886194986767 X[17,3] + 3.335721853684773 X[18,3]
   + 7.969260057106364 X[19,3] + 7.852901566885867 X[20,3] <= 0
 capacity_constraint[4]: - 9.735581851440132 Y[4]
   + 6.503761733035781 X[0,4] + 7.822755400446276 X[1,4]
   + 5.500041805851083 X[2,4] + 7.447600319730725 X[3,4]
   + 4.708068263355548 X[4,4] + 5.835720638138547 X[5,4]
   + 5.13772981648055 X[6,4] + 5.183736315133995 X[7,4]
   + 6.882795924985501 X[8,4] + 5.678020867488282 X[9,4]
   + 7.768711134724334 X[10,4] + 5.721040800740511 X[11,4]
   + 3.410474611375124 X[12,4] + 4.831712008375102 X[13,4]
   + 7.254252520022509 X[14,4] + 5.031375215239754 X[15,4]
   + 3.136011829474248 X[16,4] + 4.235886194986767 X[17,4]
   + 3.335721853684773 X[18,4] + 7.969260057106364 X[19,4]
   + 7.852901566885867 X[20,4] <= 0
 capacity_constraint[5]: - 9.735581851440132 Y[5]
   + 6.503761733035781 X[0,5] + 7.822755400446276 X[1,5]
   + 5.500041805851083 X[2,5] + 7.447600319730725 X[3,5]
   + 4.708068263355548 X[4,5] + 5.835720638138547 X[5,5]
   + 5.13772981648055 X[6,5] + 5.183736315133995 X[7,5]
   + 6.882795924985501 X[8,5] + 5.678020867488282 X[9,5]
   + 7.768711134724334 X[10,5] + 5.721040800740511 X[11,5]
   + 3.410474611375124 X[12,5] + 4.831712008375102 X[13,5]
   + 7.254252520022509 X[14,5] + 5.031375215239754 X[15,5]
   + 3.136011829474248 X[16,5] + 4.235886194986767 X[17,5]
   + 3.335721853684773 X[18,5] + 7.969260057106364 X[19,5]
   + 7.852901566885867 X[20,5] <= 0
 capacity_constraint[6]: - 8.582158119056814 Y[6]
   + 6.503761733035781 X[0,6] + 7.822755400446276 X[1,6]
   + 5.500041805851083 X[2,6] + 7.447600319730725 X[3,6]
   + 4.708068263355548 X[4,6] + 5.835720638138547 X[5,6]
   + 5.13772981648055 X[6,6] + 5.183736315133995 X[7,6]
   + 6.882795924985501 X[8,6] + 5.678020867488282 X[9,6]
   + 7.768711134724334 X[10,6] + 5.721040800740511 X[11,6]
   + 3.410474611375124 X[12,6] + 4.831712008375102 X[13,6]
   + 7.254252520022509 X[14,6] + 5.031375215239754 X[15,6]
   + 3.136011829474248 X[16,6] + 4.235886194986767 X[17,6]
   + 3.335721853684773 X[18,6] + 7.969260057106364 X[19,6]
   + 7.852901566885867 X[20,6] <= 0
 capacity_constraint[7]: - 17.95565409695284 Y[7]
   + 6.503761733035781 X[0,7] + 7.822755400446276 X[1,7]
   + 5.500041805851083 X[2,7] + 7.447600319730725 X[3,7]
   + 4.708068263355548 X[4,7] + 5.835720638138547 X[5,7]
   + 5.13772981648055 X[6,7] + 5.183736315133995 X[7,7]
   + 6.882795924985501 X[8,7] + 5.678020867488282 X[9,7]
   + 7.768711134724334 X[10,7] + 5.721040800740511 X[11,7]
   + 3.410474611375124 X[12,7] + 4.831712008375102 X[13,7]
   + 7.254252520022509 X[14,7] + 5.031375215239754 X[15,7]
   + 3.136011829474248 X[16,7] + 4.235886194986767 X[17,7]
   + 3.335721853684773 X[18,7] + 7.969260057106364 X[19,7]
   + 7.852901566885867 X[20,7] <= 0
 capacity_constraint[8]: - 8.582158119056814 Y[8]
   + 6.503761733035781 X[0,8] + 7.822755400446276 X[1,8]
   + 5.500041805851083 X[2,8] + 7.447600319730725 X[3,8]
   + 4.708068263355548 X[4,8] + 5.835720638138547 X[5,8]
   + 5.13772981648055 X[6,8] + 5.183736315133995 X[7,8]
   + 6.882795924985501 X[8,8] + 5.678020867488282 X[9,8]
   + 7.768711134724334 X[10,8] + 5.721040800740511 X[11,8]
   + 3.410474611375124 X[12,8] + 4.831712008375102 X[13,8]
   + 7.254252520022509 X[14,8] + 5.031375215239754 X[15,8]
   + 3.136011829474248 X[16,8] + 4.235886194986767 X[17,8]
   + 3.335721853684773 X[18,8] + 7.969260057106364 X[19,8]
   + 7.852901566885867 X[20,8] <= 0
 capacity_constraint[9]: - 9.735581851440132 Y[9]
   + 6.503761733035781 X[0,9] + 7.822755400446276 X[1,9]
   + 5.500041805851083 X[2,9] + 7.447600319730725 X[3,9]
   + 4.708068263355548 X[4,9] + 5.835720638138547 X[5,9]
   + 5.13772981648055 X[6,9] + 5.183736315133995 X[7,9]
   + 6.882795924985501 X[8,9] + 5.678020867488282 X[9,9]
   + 7.768711134724334 X[10,9] + 5.721040800740511 X[11,9]
   + 3.410474611375124 X[12,9] + 4.831712008375102 X[13,9]
   + 7.254252520022509 X[14,9] + 5.031375215239754 X[15,9]
   + 3.136011829474248 X[16,9] + 4.235886194986767 X[17,9]
   + 3.335721853684773 X[18,9] + 7.969260057106364 X[19,9]
   + 7.852901566885867 X[20,9] <= 0
 capacity_constraint[10]: - 12.91931572334699 Y[10]
   + 6.503761733035781 X[0,10] + 7.822755400446276 X[1,10]
   + 5.500041805851083 X[2,10] + 7.447600319730725 X[3,10]
   + 4.708068263355548 X[4,10] + 5.835720638138547 X[5,10]
   + 5.13772981648055 X[6,10] + 5.183736315133995 X[7,10]
   + 6.882795924985501 X[8,10] + 5.678020867488282 X[9,10]
   + 7.768711134724334 X[10,10] + 5.721040800740511 X[11,10]
   + 3.410474611375124 X[12,10] + 4.831712008375102 X[13,10]
   + 7.254252520022509 X[14,10] + 5.031375215239754 X[15,10]
   + 3.136011829474248 X[16,10] + 4.235886194986767 X[17,10]
   + 3.335721853684773 X[18,10] + 7.969260057106364 X[19,10]
   + 7.852901566885867 X[20,10] <= 0
 capacity_constraint[11]: - 16.99469206943343 Y[11]
   + 6.503761733035781 X[0,11] + 7.822755400446276 X[1,11]
   + 5.500041805851083 X[2,11] + 7.447600319730725 X[3,11]
   + 4.708068263355548 X[4,11] + 5.835720638138547 X[5,11]
   + 5.13772981648055 X[6,11] + 5.183736315133995 X[7,11]
   + 6.882795924985501 X[8,11] + 5.678020867488282 X[9,11]
   + 7.768711134724334 X[10,11] + 5.721040800740511 X[11,11]
   + 3.410474611375124 X[12,11] + 4.831712008375102 X[13,11]
   + 7.254252520022509 X[14,11] + 5.031375215239754 X[15,11]
   + 3.136011829474248 X[16,11] + 4.235886194986767 X[17,11]
   + 3.335721853684773 X[18,11] + 7.969260057106364 X[19,11]
   + 7.852901566885867 X[20,11] <= 0
 capacity_constraint[12]: - 8.582158119056814 Y[12]
   + 6.503761733035781 X[0,12] + 7.822755400446276 X[1,12]
   + 5.500041805851083 X[2,12] + 7.447600319730725 X[3,12]
   + 4.708068263355548 X[4,12] + 5.835720638138547 X[5,12]
   + 5.13772981648055 X[6,12] + 5.183736315133995 X[7,12]
   + 6.882795924985501 X[8,12] + 5.678020867488282 X[9,12]
   + 7.768711134724334 X[10,12] + 5.721040800740511 X[11,12]
   + 3.410474611375124 X[12,12] + 4.831712008375102 X[13,12]
   + 7.254252520022509 X[14,12] + 5.031375215239754 X[15,12]
   + 3.136011829474248 X[16,12] + 4.235886194986767 X[17,12]
   + 3.335721853684773 X[18,12] + 7.969260057106364 X[19,12]
   + 7.852901566885867 X[20,12] <= 0
 capacity_constraint[13]: - 14.69587365877013 Y[13]
   + 6.503761733035781 X[0,13] + 7.822755400446276 X[1,13]
   + 5.500041805851083 X[2,13] + 7.447600319730725 X[3,13]
   + 4.708068263355548 X[4,13] + 5.835720638138547 X[5,13]
   + 5.13772981648055 X[6,13] + 5.183736315133995 X[7,13]
   + 6.882795924985501 X[8,13] + 5.678020867488282 X[9,13]
   + 7.768711134724334 X[10,13] + 5.721040800740511 X[11,13]
   + 3.410474611375124 X[12,13] + 4.831712008375102 X[13,13]
   + 7.254252520022509 X[14,13] + 5.031375215239754 X[15,13]
   + 3.136011829474248 X[16,13] + 4.235886194986767 X[17,13]
   + 3.335721853684773 X[18,13] + 7.969260057106364 X[19,13]
   + 7.852901566885867 X[20,13] <= 0
 capacity_constraint[14]: - 17.95565409695284 Y[14]
   + 6.503761733035781 X[0,14] + 7.822755400446276 X[1,14]
   + 5.500041805851083 X[2,14] + 7.447600319730725 X[3,14]
   + 4.708068263355548 X[4,14] + 5.835720638138547 X[5,14]
   + 5.13772981648055 X[6,14] + 5.183736315133995 X[7,14]
   + 6.882795924985501 X[8,14] + 5.678020867488282 X[9,14]
   + 7.768711134724334 X[10,14] + 5.721040800740511 X[11,14]
   + 3.410474611375124 X[12,14] + 4.831712008375102 X[13,14]
   + 7.254252520022509 X[14,14] + 5.031375215239754 X[15,14]
   + 3.136011829474248 X[16,14] + 4.235886194986767 X[17,14]
   + 3.335721853684773 X[18,14] + 7.969260057106364 X[19,14]
   + 7.852901566885867 X[20,14] <= 0
 capacity_constraint[15]: - 13.19009369772045 Y[15]
   + 6.503761733035781 X[0,15] + 7.822755400446276 X[1,15]
   + 5.500041805851083 X[2,15] + 7.447600319730725 X[3,15]
   + 4.708068263355548 X[4,15] + 5.835720638138547 X[5,15]
   + 5.13772981648055 X[6,15] + 5.183736315133995 X[7,15]
   + 6.882795924985501 X[8,15] + 5.678020867488282 X[9,15]
   + 7.768711134724334 X[10,15] + 5.721040800740511 X[11,15]
   + 3.410474611375124 X[12,15] + 4.831712008375102 X[13,15]
   + 7.254252520022509 X[14,15] + 5.031375215239754 X[15,15]
   + 3.136011829474248 X[16,15] + 4.235886194986767 X[17,15]
   + 3.335721853684773 X[18,15] + 7.969260057106364 X[19,15]
   + 7.852901566885867 X[20,15] <= 0
 capacity_constraint[16]: - 7.88411923482907 Y[16]
   + 6.503761733035781 X[0,16] + 7.822755400446276 X[1,16]
   + 5.500041805851083 X[2,16] + 7.447600319730725 X[3,16]
   + 4.708068263355548 X[4,16] + 5.835720638138547 X[5,16]
   + 5.13772981648055 X[6,16] + 5.183736315133995 X[7,16]
   + 6.882795924985501 X[8,16] + 5.678020867488282 X[9,16]
   + 7.768711134724334 X[10,16] + 5.721040800740511 X[11,16]
   + 3.410474611375124 X[12,16] + 4.831712008375102 X[13,16]
   + 7.254252520022509 X[14,16] + 5.031375215239754 X[15,16]
   + 3.136011829474248 X[16,16] + 4.235886194986767 X[17,16]
   + 3.335721853684773 X[18,16] + 7.969260057106364 X[19,16]
   + 7.852901566885867 X[20,16] <= 0
 capacity_constraint[17]: - 16.99469206943343 Y[17]
   + 6.503761733035781 X[0,17] + 7.822755400446276 X[1,17]
   + 5.500041805851083 X[2,17] + 7.447600319730725 X[3,17]
   + 4.708068263355548 X[4,17] + 5.835720638138547 X[5,17]
   + 5.13772981648055 X[6,17] + 5.183736315133995 X[7,17]
   + 6.882795924985501 X[8,17] + 5.678020867488282 X[9,17]
   + 7.768711134724334 X[10,17] + 5.721040800740511 X[11,17]
   + 3.410474611375124 X[12,17] + 4.831712008375102 X[13,17]
   + 7.254252520022509 X[14,17] + 5.031375215239754 X[15,17]
   + 3.136011829474248 X[16,17] + 4.235886194986767 X[17,17]
   + 3.335721853684773 X[18,17] + 7.969260057106364 X[19,17]
   + 7.852901566885867 X[20,17] <= 0
 capacity_constraint[18]: - 14.69587365877013 Y[18]
   + 6.503761733035781 X[0,18] + 7.822755400446276 X[1,18]
   + 5.500041805851083 X[2,18] + 7.447600319730725 X[3,18]
   + 4.708068263355548 X[4,18] + 5.835720638138547 X[5,18]
   + 5.13772981648055 X[6,18] + 5.183736315133995 X[7,18]
   + 6.882795924985501 X[8,18] + 5.678020867488282 X[9,18]
   + 7.768711134724334 X[10,18] + 5.721040800740511 X[11,18]
   + 3.410474611375124 X[12,18] + 4.831712008375102 X[13,18]
   + 7.254252520022509 X[14,18] + 5.031375215239754 X[15,18]
   + 3.136011829474248 X[16,18] + 4.235886194986767 X[17,18]
   + 3.335721853684773 X[18,18] + 7.969260057106364 X[19,18]
   + 7.852901566885867 X[20,18] <= 0
 capacity_constraint[19]: - 13.19009369772045 Y[19]
   + 6.503761733035781 X[0,19] + 7.822755400446276 X[1,19]
   + 5.500041805851083 X[2,19] + 7.447600319730725 X[3,19]
   + 4.708068263355548 X[4,19] + 5.835720638138547 X[5,19]
   + 5.13772981648055 X[6,19] + 5.183736315133995 X[7,19]
   + 6.882795924985501 X[8,19] + 5.678020867488282 X[9,19]
   + 7.768711134724334 X[10,19] + 5.721040800740511 X[11,19]
   + 3.410474611375124 X[12,19] + 4.831712008375102 X[13,19]
   + 7.254252520022509 X[14,19] + 5.031375215239754 X[15,19]
   + 3.136011829474248 X[16,19] + 4.235886194986767 X[17,19]
   + 3.335721853684773 X[18,19] + 7.969260057106364 X[19,19]
   + 7.852901566885867 X[20,19] <= 0
 capacity_constraint[20]: - 9.735581851440132 Y[20]
   + 6.503761733035781 X[0,20] + 7.822755400446276 X[1,20]
   + 5.500041805851083 X[2,20] + 7.447600319730725 X[3,20]
   + 4.708068263355548 X[4,20] + 5.835720638138547 X[5,20]
   + 5.13772981648055 X[6,20] + 5.183736315133995 X[7,20]
   + 6.882795924985501 X[8,20] + 5.678020867488282 X[9,20]
   + 7.768711134724334 X[10,20] + 5.721040800740511 X[11,20]
   + 3.410474611375124 X[12,20] + 4.831712008375102 X[13,20]
   + 7.254252520022509 X[14,20] + 5.031375215239754 X[15,20]
   + 3.136011829474248 X[16,20] + 4.235886194986767 X[17,20]
   + 3.335721853684773 X[18,20] + 7.969260057106364 X[19,20]
   + 7.852901566885867 X[20,20] <= 0
 capacity_constraint[21]: - 12.91931572334699 Y[21]
   + 6.503761733035781 X[0,21] + 7.822755400446276 X[1,21]
   + 5.500041805851083 X[2,21] + 7.447600319730725 X[3,21]
   + 4.708068263355548 X[4,21] + 5.835720638138547 X[5,21]
   + 5.13772981648055 X[6,21] + 5.183736315133995 X[7,21]
   + 6.882795924985501 X[8,21] + 5.678020867488282 X[9,21]
   + 7.768711134724334 X[10,21] + 5.721040800740511 X[11,21]
   + 3.410474611375124 X[12,21] + 4.831712008375102 X[13,21]
   + 7.254252520022509 X[14,21] + 5.031375215239754 X[15,21]
   + 3.136011829474248 X[16,21] + 4.235886194986767 X[17,21]
   + 3.335721853684773 X[18,21] + 7.969260057106364 X[19,21]
   + 7.852901566885867 X[20,21] <= 0
 capacity_constraint[22]: - 8.582158119056814 Y[22]
   + 6.503761733035781 X[0,22] + 7.822755400446276 X[1,22]
   + 5.500041805851083 X[2,22] + 7.447600319730725 X[3,22]
   + 4.708068263355548 X[4,22] + 5.835720638138547 X[5,22]
   + 5.13772981648055 X[6,22] + 5.183736315133995 X[7,22]
   + 6.882795924985501 X[8,22] + 5.678020867488282 X[9,22]
   + 7.768711134724334 X[10,22] + 5.721040800740511 X[11,22]
   + 3.410474611375124 X[12,22] + 4.831712008375102 X[13,22]
   + 7.254252520022509 X[14,22] + 5.031375215239754 X[15,22]
   + 3.136011829474248 X[16,22] + 4.235886194986767 X[17,22]
   + 3.335721853684773 X[18,22] + 7.969260057106364 X[19,22]
   + 7.852901566885867 X[20,22] <= 0
 capacity_constraint[23]: - 13.19009369772045 Y[23]
   + 6.503761733035781 X[0,23] + 7.822755400446276 X[1,23]
   + 5.500041805851083 X[2,23] + 7.447600319730725 X[3,23]
   + 4.708068263355548 X[4,23] + 5.835720638138547 X[5,23]
   + 5.13772981648055 X[6,23] + 5.183736315133995 X[7,23]
   + 6.882795924985501 X[8,23] + 5.678020867488282 X[9,23]
   + 7.768711134724334 X[10,23] + 5.721040800740511 X[11,23]
   + 3.410474611375124 X[12,23] + 4.831712008375102 X[13,23]
   + 7.254252520022509 X[14,23] + 5.031375215239754 X[15,23]
   + 3.136011829474248 X[16,23] + 4.235886194986767 X[17,23]
   + 3.335721853684773 X[18,23] + 7.969260057106364 X[19,23]
   + 7.852901566885867 X[20,23] <= 0
 capacity_constraint[24]: - 13.40798931987855 Y[24]
   + 6.503761733035781 X[0,24] + 7.822755400446276 X[1,24]
   + 5.500041805851083 X[2,24] + 7.447600319730725 X[3,24]
   + 4.708068263355548 X[4,24] + 5.835720638138547 X[5,24]
   + 5.13772981648055 X[6,24] + 5.183736315133995 X[7,24]
   + 6.882795924985501 X[8,24] + 5.678020867488282 X[9,24]
   + 7.768711134724334 X[10,24] + 5.721040800740511 X[11,24]
   + 3.410474611375124 X[12,24] + 4.831712008375102 X[13,24]
   + 7.254252520022509 X[14,24] + 5.031375215239754 X[15,24]
   + 3.136011829474248 X[16,24] + 4.235886194986767 X[17,24]
   + 3.335721853684773 X[18,24] + 7.969260057106364 X[19,24]
   + 7.852901566885867 X[20,24] <= 0
 compulsory_item[0]: X[0,0] + X[0,1] + X[0,2] + X[0,3] + X[0,4] + X[0,5]
   + X[0,6] + X[0,7] + X[0,8] + X[0,9] + X[0,10] + X[0,11] + X[0,12]
   + X[0,13] + X[0,14] + X[0,15] + X[0,16] + X[0,17] + X[0,18] + X[0,19]
   + X[0,20] + X[0,21] + X[0,22] + X[0,23] + X[0,24] = 1
 compulsory_item[1]: X[1,0] + X[1,1] + X[1,2] + X[1,3] + X[1,4] + X[1,5]
   + X[1,6] + X[1,7] + X[1,8] + X[1,9] + X[1,10] + X[1,11] + X[1,12]
   + X[1,13] + X[1,14] + X[1,15] + X[1,16] + X[1,17] + X[1,18] + X[1,19]
   + X[1,20] + X[1,21] + X[1,22] + X[1,23] + X[1,24] = 1
 compulsory_item[2]: X[2,0] + X[2,1] + X[2,2] + X[2,3] + X[2,4] + X[2,5]
   + X[2,6] + X[2,7] + X[2,8] + X[2,9] + X[2,10] + X[2,11] + X[2,12]
   + X[2,13] + X[2,14] + X[2,15] + X[2,16] + X[2,17] + X[2,18] + X[2,19]
   + X[2,20] + X[2,21] + X[2,22] + X[2,23] + X[2,24] = 1
 compulsory_item[3]: X[3,0] + X[3,1] + X[3,2] + X[3,3] + X[3,4] + X[3,5]
   + X[3,6] + X[3,7] + X[3,8] + X[3,9] + X[3,10] + X[3,11] + X[3,12]
   + X[3,13] + X[3,14] + X[3,15] + X[3,16] + X[3,17] + X[3,18] + X[3,19]
   + X[3,20] + X[3,21] + X[3,22] + X[3,23] + X[3,24] = 1
 compulsory_item[4]: X[4,0] + X[4,1] + X[4,2] + X[4,3] + X[4,4] + X[4,5]
   + X[4,6] + X[4,7] + X[4,8] + X[4,9] + X[4,10] + X[4,11] + X[4,12]
   + X[4,13] + X[4,14] + X[4,15] + X[4,16] + X[4,17] + X[4,18] + X[4,19]
   + X[4,20] + X[4,21] + X[4,22] + X[4,23] + X[4,24] = 1
 compulsory_item[5]: X[5,0] + X[5,1] + X[5,2] + X[5,3] + X[5,4] + X[5,5]
   + X[5,6] + X[5,7] + X[5,8] + X[5,9] + X[5,10] + X[5,11] + X[5,12]
   + X[5,13] + X[5,14] + X[5,15] + X[5,16] + X[5,17] + X[5,18] + X[5,19]
   + X[5,20] + X[5,21] + X[5,22] + X[5,23] + X[5,24] = 1
 compulsory_item[6]: X[6,0] + X[6,1] + X[6,2] + X[6,3] + X[6,4] + X[6,5]
   + X[6,6] + X[6,7] + X[6,8] + X[6,9] + X[6,10] + X[6,11] + X[6,12]
   + X[6,13] + X[6,14] + X[6,15] + X[6,16] + X[6,17] + X[6,18] + X[6,19]
   + X[6,20] + X[6,21] + X[6,22] + X[6,23] + X[6,24] = 1
 compulsory_item[7]: X[7,0] + X[7,1] + X[7,2] + X[7,3] + X[7,4] + X[7,5]
   + X[7,6] + X[7,7] + X[7,8] + X[7,9] + X[7,10] + X[7,11] + X[7,12]
   + X[7,13] + X[7,14] + X[7,15] + X[7,16] + X[7,17] + X[7,18] + X[7,19]
   + X[7,20] + X[7,21] + X[7,22] + X[7,23] + X[7,24] = 1
 compulsory_item[8]: X[8,0] + X[8,1] + X[8,2] + X[8,3] + X[8,4] + X[8,5]
   + X[8,6] + X[8,7] + X[8,8] + X[8,9] + X[8,10] + X[8,11] + X[8,12]
   + X[8,13] + X[8,14] + X[8,15] + X[8,16] + X[8,17] + X[8,18] + X[8,19]
   + X[8,20] + X[8,21] + X[8,22] + X[8,23] + X[8,24] = 1
 non_compulsory_item[9]: X[9,0] + X[9,1] + X[9,2] + X[9,3] + X[9,4]
   + X[9,5] + X[9,6] + X[9,7] + X[9,8] + X[9,9] + X[9,10] + X[9,11]
   + X[9,12] + X[9,13] + X[9,14] + X[9,15] + X[9,16] + X[9,17] + X[9,18]
   + X[9,19] + X[9,20] + X[9,21] + X[9,22] + X[9,23] + X[9,24] <= 1
 non_compulsory_item[10]: X[10,0] + X[10,1] + X[10,2] + X[10,3] + X[10,4]
   + X[10,5] + X[10,6] + X[10,7] + X[10,8] + X[10,9] + X[10,10] + X[10,11]
   + X[10,12] + X[10,13] + X[10,14] + X[10,15] + X[10,16] + X[10,17]
   + X[10,18] + X[10,19] + X[10,20] + X[10,21] + X[10,22] + X[10,23]
   + X[10,24] <= 1
 non_compulsory_item[11]: X[11,0] + X[11,1] + X[11,2] + X[11,3] + X[11,4]
   + X[11,5] + X[11,6] + X[11,7] + X[11,8] + X[11,9] + X[11,10] + X[11,11]
   + X[11,12] + X[11,13] + X[11,14] + X[11,15] + X[11,16] + X[11,17]
   + X[11,18] + X[11,19] + X[11,20] + X[11,21] + X[11,22] + X[11,23]
   + X[11,24] <= 1
 non_compulsory_item[12]: X[12,0] + X[12,1] + X[12,2] + X[12,3] + X[12,4]
   + X[12,5] + X[12,6] + X[12,7] + X[12,8] + X[12,9] + X[12,10] + X[12,11]
   + X[12,12] + X[12,13] + X[12,14] + X[12,15] + X[12,16] + X[12,17]
   + X[12,18] + X[12,19] + X[12,20] + X[12,21] + X[12,22] + X[12,23]
   + X[12,24] <= 1
 non_compulsory_item[13]: X[13,0] + X[13,1] + X[13,2] + X[13,3] + X[13,4]
   + X[13,5] + X[13,6] + X[13,7] + X[13,8] + X[13,9] + X[13,10] + X[13,11]
   + X[13,12] + X[13,13] + X[13,14] + X[13,15] + X[13,16] + X[13,17]
   + X[13,18] + X[13,19] + X[13,20] + X[13,21] + X[13,22] + X[13,23]
   + X[13,24] <= 1
 non_compulsory_item[14]: X[14,0] + X[14,1] + X[14,2] + X[14,3] + X[14,4]
   + X[14,5] + X[14,6] + X[14,7] + X[14,8] + X[14,9] + X[14,10] + X[14,11]
   + X[14,12] + X[14,13] + X[14,14] + X[14,15] + X[14,16] + X[14,17]
   + X[14,18] + X[14,19] + X[14,20] + X[14,21] + X[14,22] + X[14,23]
   + X[14,24] <= 1
 non_compulsory_item[15]: X[15,0] + X[15,1] + X[15,2] + X[15,3] + X[15,4]
   + X[15,5] + X[15,6] + X[15,7] + X[15,8] + X[15,9] + X[15,10] + X[15,11]
   + X[15,12] + X[15,13] + X[15,14] + X[15,15] + X[15,16] + X[15,17]
   + X[15,18] + X[15,19] + X[15,20] + X[15,21] + X[15,22] + X[15,23]
   + X[15,24] <= 1
 non_compulsory_item[16]: X[16,0] + X[16,1] + X[16,2] + X[16,3] + X[16,4]
   + X[16,5] + X[16,6] + X[16,7] + X[16,8] + X[16,9] + X[16,10] + X[16,11]
   + X[16,12] + X[16,13] + X[16,14] + X[16,15] + X[16,16] + X[16,17]
   + X[16,18] + X[16,19] + X[16,20] + X[16,21] + X[16,22] + X[16,23]
   + X[16,24] <= 1
 non_compulsory_item[17]: X[17,0] + X[17,1] + X[17,2] + X[17,3] + X[17,4]
   + X[17,5] + X[17,6] + X[17,7] + X[17,8] + X[17,9] + X[17,10] + X[17,11]
   + X[17,12] + X[17,13] + X[17,14] + X[17,15] + X[17,16] + X[17,17]
   + X[17,18] + X[17,19] + X[17,20] + X[17,21] + X[17,22] + X[17,23]
   + X[17,24] <= 1
 non_compulsory_item[18]: X[18,0] + X[18,1] + X[18,2] + X[18,3] + X[18,4]
   + X[18,5] + X[18,6] + X[18,7] + X[18,8] + X[18,9] + X[18,10] + X[18,11]
   + X[18,12] + X[18,13] + X[18,14] + X[18,15] + X[18,16] + X[18,17]
   + X[18,18] + X[18,19] + X[18,20] + X[18,21] + X[18,22] + X[18,23]
   + X[18,24] <= 1
 non_compulsory_item[19]: X[19,0] + X[19,1] + X[19,2] + X[19,3] + X[19,4]
   + X[19,5] + X[19,6] + X[19,7] + X[19,8] + X[19,9] + X[19,10] + X[19,11]
   + X[19,12] + X[19,13] + X[19,14] + X[19,15] + X[19,16] + X[19,17]
   + X[19,18] + X[19,19] + X[19,20] + X[19,21] + X[19,22] + X[19,23]
   + X[19,24] <= 1
 non_compulsory_item[20]: X[20,0] + X[20,1] + X[20,2] + X[20,3] + X[20,4]
   + X[20,5] + X[20,6] + X[20,7] + X[20,8] + X[20,9] + X[20,10] + X[20,11]
   + X[20,12] + X[20,13] + X[20,14] + X[20,15] + X[20,16] + X[20,17]
   + X[20,18] + X[20,19] + X[20,20] + X[20,21] + X[20,22] + X[20,23]
   + X[20,24] <= 1
 budget_constraint: 242.0367802087489 Y[0] + 233.0334821003874 Y[1]
   + 229.9654673674523 Y[2] + 243.5322392618277 Y[3]
   + 243.5994902142004 Y[4] + 243.5994902142004 Y[5]
   + 233.0334821003874 Y[6] + 261.9270966350664 Y[7]
   + 233.0334821003874 Y[8] + 243.5994902142004 Y[9]
   + 229.9654673674523 Y[10] + 220.4648634037842 Y[11]
   + 233.0334821003874 Y[12] + 202.5926231827891 Y[13]
   + 261.9270966350664 Y[14] + 242.0367802087489 Y[15]
   + 243.5322392618277 Y[16] + 220.4648634037842 Y[17]
   + 202.5926231827891 Y[18] + 242.0367802087489 Y[19]
   + 243.5994902142004 Y[20] + 229.9654673674523 Y[21]
   + 233.0334821003874 Y[22] + 242.0367802087489 Y[23]
   + 254.9662477878709 Y[24] <= 2414.905837374687
Bounds
Binaries
 Y[0] Y[1] Y[2] Y[3] Y[4] Y[5] Y[6] Y[7] Y[8] Y[9] Y[10] Y[11] Y[12] Y[13]
 Y[14] Y[15] Y[16] Y[17] Y[18] Y[19] Y[20] Y[21] Y[22] Y[23] Y[24] X[0,0]
 X[0,1] X[0,2] X[0,3] X[0,4] X[0,5] X[0,6] X[0,7] X[0,8] X[0,9] X[0,10]
 X[0,11] X[0,12] X[0,13] X[0,14] X[0,15] X[0,16] X[0,17] X[0,18] X[0,19]
 X[0,20] X[0,21] X[0,22] X[0,23] X[0,24] X[1,0] X[1,1] X[1,2] X[1,3] X[1,4]
 X[1,5] X[1,6] X[1,7] X[1,8] X[1,9] X[1,10] X[1,11] X[1,12] X[1,13] X[1,14]
 X[1,15] X[1,16] X[1,17] X[1,18] X[1,19] X[1,20] X[1,21] X[1,22] X[1,23]
 X[1,24] X[2,0] X[2,1] X[2,2] X[2,3] X[2,4] X[2,5] X[2,6] X[2,7] X[2,8]
 X[2,9] X[2,10] X[2,11] X[2,12] X[2,13] X[2,14] X[2,15] X[2,16] X[2,17]
 X[2,18] X[2,19] X[2,20] X[2,21] X[2,22] X[2,23] X[2,24] X[3,0] X[3,1]
 X[3,2] X[3,3] X[3,4] X[3,5] X[3,6] X[3,7] X[3,8] X[3,9] X[3,10] X[3,11]
 X[3,12] X[3,13] X[3,14] X[3,15] X[3,16] X[3,17] X[3,18] X[3,19] X[3,20]
 X[3,21] X[3,22] X[3,23] X[3,24] X[4,0] X[4,1] X[4,2] X[4,3] X[4,4] X[4,5]
 X[4,6] X[4,7] X[4,8] X[4,9] X[4,10] X[4,11] X[4,12] X[4,13] X[4,14]
 X[4,15] X[4,16] X[4,17] X[4,18] X[4,19] X[4,20] X[4,21] X[4,22] X[4,23]
 X[4,24] X[5,0] X[5,1] X[5,2] X[5,3] X[5,4] X[5,5] X[5,6] X[5,7] X[5,8]
 X[5,9] X[5,10] X[5,11] X[5,12] X[5,13] X[5,14] X[5,15] X[5,16] X[5,17]
 X[5,18] X[5,19] X[5,20] X[5,21] X[5,22] X[5,23] X[5,24] X[6,0] X[6,1]
 X[6,2] X[6,3] X[6,4] X[6,5] X[6,6] X[6,7] X[6,8] X[6,9] X[6,10] X[6,11]
 X[6,12] X[6,13] X[6,14] X[6,15] X[6,16] X[6,17] X[6,18] X[6,19] X[6,20]
 X[6,21] X[6,22] X[6,23] X[6,24] X[7,0] X[7,1] X[7,2] X[7,3] X[7,4] X[7,5]
 X[7,6] X[7,7] X[7,8] X[7,9] X[7,10] X[7,11] X[7,12] X[7,13] X[7,14]
 X[7,15] X[7,16] X[7,17] X[7,18] X[7,19] X[7,20] X[7,21] X[7,22] X[7,23]
 X[7,24] X[8,0] X[8,1] X[8,2] X[8,3] X[8,4] X[8,5] X[8,6] X[8,7] X[8,8]
 X[8,9] X[8,10] X[8,11] X[8,12] X[8,13] X[8,14] X[8,15] X[8,16] X[8,17]
 X[8,18] X[8,19] X[8,20] X[8,21] X[8,22] X[8,23] X[8,24] X[9,0] X[9,1]
 X[9,2] X[9,3] X[9,4] X[9,5] X[9,6] X[9,7] X[9,8] X[9,9] X[9,10] X[9,11]
 X[9,12] X[9,13] X[9,14] X[9,15] X[9,16] X[9,17] X[9,18] X[9,19] X[9,20]
 X[9,21] X[9,22] X[9,23] X[9,24] X[10,0] X[10,1] X[10,2] X[10,3] X[10,4]
 X[10,5] X[10,6] X[10,7] X[10,8] X[10,9] X[10,10] X[10,11] X[10,12]
 X[10,13] X[10,14] X[10,15] X[10,16] X[10,17] X[10,18] X[10,19] X[10,20]
 X[10,21] X[10,22] X[10,23] X[10,24] X[11,0] X[11,1] X[11,2] X[11,3]
 X[11,4] X[11,5] X[11,6] X[11,7] X[11,8] X[11,9] X[11,10] X[11,11] X[11,12]
 X[11,13] X[11,14] X[11,15] X[11,16] X[11,17] X[11,18] X[11,19] X[11,20]
 X[11,21] X[11,22] X[11,23] X[11,24] X[12,0] X[12,1] X[12,2] X[12,3]
 X[12,4] X[12,5] X[12,6] X[12,7] X[12,8] X[12,9] X[12,10] X[12,11] X[12,12]
 X[12,13] X[12,14] X[12,15] X[12,16] X[12,17] X[12,18] X[12,19] X[12,20]
 X[12,21] X[12,22] X[12,23] X[12,24] X[13,0] X[13,1] X[13,2] X[13,3]
 X[13,4] X[13,5] X[13,6] X[13,7] X[13,8] X[13,9] X[13,10] X[13,11] X[13,12]
 X[13,13] X[13,14] X[13,15] X[13,16] X[13,17] X[13,18] X[13,19] X[13,20]
 X[13,21] X[13,22] X[13,23] X[13,24] X[14,0] X[14,1] X[14,2] X[14,3]
 X[14,4] X[14,5] X[14,6] X[14,7] X[14,8] X[14,9] X[14,10] X[14,11] X[14,12]
 X[14,13] X[14,14] X[14,15] X[14,16] X[14,17] X[14,18] X[14,19] X[14,20]
 X[14,21] X[14,22] X[14,23] X[14,24] X[15,0] X[15,1] X[15,2] X[15,3]
 X[15,4] X[15,5] X[15,6] X[15,7] X[15,8] X[15,9] X[15,10] X[15,11] X[15,12]
 X[15,13] X[15,14] X[15,15] X[15,16] X[15,17] X[15,18] X[15,19] X[15,20]
 X[15,21] X[15,22] X[15,23] X[15,24] X[16,0] X[16,1] X[16,2] X[16,3]
 X[16,4] X[16,5] X[16,6] X[16,7] X[16,8] X[16,9] X[16,10] X[16,11] X[16,12]
 X[16,13] X[16,14] X[16,15] X[16,16] X[16,17] X[16,18] X[16,19] X[16,20]
 X[16,21] X[16,22] X[16,23] X[16,24] X[17,0] X[17,1] X[17,2] X[17,3]
 X[17,4] X[17,5] X[17,6] X[17,7] X[17,8] X[17,9] X[17,10] X[17,11] X[17,12]
 X[17,13] X[17,14] X[17,15] X[17,16] X[17,17] X[17,18] X[17,19] X[17,20]
 X[17,21] X[17,22] X[17,23] X[17,24] X[18,0] X[18,1] X[18,2] X[18,3]
 X[18,4] X[18,5] X[18,6] X[18,7] X[18,8] X[18,9] X[18,10] X[18,11] X[18,12]
 X[18,13] X[18,14] X[18,15] X[18,16] X[18,17] X[18,18] X[18,19] X[18,20]
 X[18,21] X[18,22] X[18,23] X[18,24] X[19,0] X[19,1] X[19,2] X[19,3]
 X[19,4] X[19,5] X[19,6] X[19,7] X[19,8] X[19,9] X[19,10] X[19,11] X[19,12]
 X[19,13] X[19,14] X[19,15] X[19,16] X[19,17] X[19,18] X[19,19] X[19,20]
 X[19,21] X[19,22] X[19,23] X[19,24] X[20,0] X[20,1] X[20,2] X[20,3]
 X[20,4] X[20,5] X[20,6] X[20,7] X[20,8] X[20,9] X[20,10] X[20,11] X[20,12]
 X[20,13] X[20,14] X[20,15] X[20,16] X[20,17] X[20,18] X[20,19] X[20,20]
 X[20,21] X[20,22] X[20,23] X[20,24]
End
